objective value:                                   -3
t_n_10                                              1 	(obj:-1)
t_n_807                                             1 	(obj:-1)
t_n_1443                                            1 	(obj:-1)
